%%% static parameters %%%
timespan = 1;
initial_fruit_bushes = [40];
initial_foragers = [40];
ticks_to_flee = [100];
bush_growth_chance = [10];
rate_of_mutation = [5.0];
%%% dynamic parameters %%%
mean_strength_th = 0.05338386605314893;
mean_strength_w = 57;
mean_speed_th = 0.6611104373771509;
mean_speed_w = 61;
mean_intelligence_th = 0.7180092056723986;
mean_intelligence_w = 93;
murder_rate_th = 0.8024819686867234;
murder_rate_w = 95;
age_death_rate_th = 0.5793896855952728;
age_death_rate_w = 70;
starvation_rate_th = 0.8312983031540492;
starvation_rate_w = 2;
mean_reactive_aggression_th = 0.3576928719862865;
mean_reactive_aggression_w = 94;
mean_proactive_aggression_th = 0.8144832722915366;
mean_proactive_aggression_w = 8;
average_population_th = 716;
average_population_w = 62;
